56200
30, 4, 18, 42, 33, 27, 1, 36, 46, 39, 29, 21, 23, 53, 34, 54, 26, 55, 28, 6, 3, 43, 40, 51, 13, 41, 35, 5, 37, 7, 20, 50, 24, 38, 8, 44, 32, 19, 49, 48, 17, 22, 10, 16, 15, 52, 25, 31, 11, 45, 2, 14, 9, 12, 47
